Route #1: 1 40 11 39 66 12 15 36 47 31 1 
Route #2: 1 8 12 60 12 67 12 54 20 9 47 1 
Route #3: 1 38 71 61 72 38 49 38 1 
Route #4: 1 69 74 23 65 23 29 75 23 63 1 
Route #5: 1 47 35 53 28 14 47 55 47 68 1 
Route #6: 1 38 21 58 16 38 30 38 1 
Route #7: 1 41 51 56 26 51 19 51 1 
Route #8: 1 13 10 40 32 40 73 59 27 1 
Route #9: 1 7 23 43 42 57 24 44 2 23 3 76 1 
Route #10: 1 52 24 64 34 23 62 23 1 
Route #11: 1 18 33 51 45 4 51 25 50 24 17 1 
Route #12: 1 5 46 6 38 70 37 38 48 22 38 1 
Cost 1356.0
